NAME: cum100.tsp
TYPE: TSP
COMMENT: User-generated TSP file
DIMENSION: 100
EDGE_WEIGHT_TYPE: EUC_2D
NODE_COORD_SECTION
1 92.0 28.0
2 78.0 43.0
3 83.0 56.0
4 95.0 100.0
5 81.0 50.0
6 89.0 87.0
7 68.0 57.0
8 32.0 59.0
9 96.0 1.0
10 6.0 61.0
11 45.0 26.0
12 63.0 64.0
13 32.0 32.0
14 47.0 1.0
15 56.0 60.0
16 100.0 17.0
17 45.0 19.0
18 29.0 74.0
19 82.0 39.0
20 73.0 48.0
21 10.0 58.0
22 100.0 56.0
23 99.0 90.0
24 85.0 33.0
25 35.0 6.0
26 24.0 91.0
27 26.0 60.0
28 15.0 97.0
29 95.0 54.0
30 83.0 47.0
31 31.0 37.0
32 28.0 25.0
33 19.0 99.0
34 43.0 83.0
35 81.0 13.0
36 93.0 52.0
37 65.0 38.0
38 61.0 31.0
39 59.0 75.0
40 27.0 65.0
41 82.0 42.0
42 20.0 82.0
43 51.0 74.0
44 22.0 53.0
45 22.0 20.0
46 61.0 79.0
47 26.0 11.0
48 22.0 1.0
49 68.0 11.0
50 48.0 75.0
51 70.0 46.0
52 61.0 9.0
53 53.0 100.0
54 31.0 86.0
55 2.0 85.0
56 44.0 52.0
57 10.0 53.0
58 14.0 66.0
59 59.0 5.0
60 9.0 82.0
61 27.0 67.0
62 82.0 31.0
63 70.0 35.0
64 93.0 27.0
65 83.0 60.0
66 37.0 19.0
67 76.0 4.0
68 28.0 8.0
69 36.0 90.0
70 75.0 14.0
71 68.0 21.0
72 17.0 31.0
73 6.0 63.0
74 37.0 37.0
75 30.0 95.0
76 93.0 11.0
77 96.0 94.0
78 93.0 9.0
79 34.0 54.0
80 7.0 16.0
81 53.0 72.0
82 51.0 59.0
83 74.0 31.0
84 17.0 77.0
85 60.0 88.0
86 17.0 48.0
87 79.0 84.0
88 32.0 98.0
89 63.0 70.0
90 75.0 35.0
91 90.0 32.0
92 91.0 38.0
93 90.0 86.0
94 51.0 1.0
95 41.0 67.0
96 9.0 70.0
97 23.0 17.0
98 83.0 10.0
99 91.0 40.0
100 3.0 75.0
EOF





